min: 1 x1 + 1 x2 + 1 x3 + 1 x4 + 1 x5 + 1 x6 + 1 x7 + 1 x8 + 1 x9 + 1 x10;

r1: x4 + x9 + x3 >= 1;
r2: x2 + x10 >= 1;
r3: x8 + x7 + x6 + x2 >= 1;
r4: x6 + x8 >= 1;
r5: x7 >= 1;
r6: x7 + x1 + x6 + x8 >= 1;
r7: x2 + x6 + x3 + x7 >= 1;
r8: x8 + x9 >= 1;
r9: x6 + x3 + x8 >= 1;
r10: x2 >= 1;
r11: x1 + x6 + x9 >= 1;
r12: x9 >= 1;
r13: x5 >= 1;
r14: x4 + x5 + x3 >= 1;
r15: x9 + x3 + x10 + x5 >= 1;
r16: x10 >= 1;
r17: x8 + x2 + x5 >= 1;
r18: x6 >= 1;
r19: x6 + x3 >= 1;
r20: x6 + x2 + x9 >= 1;
r21: x5 + x4 + x8 >= 1;
r22: x5 + x10 + x3 + x7 >= 1;
r23: x9 + x8 >= 1;
r24: x3 + x4 + x7 + x2 >= 1;
r25: x6 + x9 + x3 + x1 >= 1;
r26: x4 + x9 + x5 >= 1;
r27: x10 + x8 >= 1;
r28: x4 >= 1;
r29: x1 + x10 + x5 >= 1;
r30: x6 + x10 + x5 + x4 >= 1;

bin x1, x2, x3, x4, x5, x6, x7, x8, x9, x10;
